(set-info :source |printed by MathSAT|)
(declare-fun |.x{1}| () Int)
(declare-fun |.x{765}| () Int)
(declare-fun |.x{37}| () (Array Int Int))
(declare-fun |.x{766}| () (Array Int Int))
(declare-fun |.x{3}| () (Array Int Int))
(declare-fun |.x{767}| () (Array Int Int))
(declare-fun |.x{4}| () (Array Int (Array Int Int)))
(declare-fun |.x{768}| () (Array Int (Array Int Int)))
(declare-fun |.x{5}| () (Array Int (Array Int Int)))
(declare-fun |.x{769}| () (Array Int (Array Int Int)))
(declare-fun |.x{41}| () Int)
(declare-fun |.x{770}| () Int)
(declare-fun |.x{7}| () Int)
(declare-fun |.x{771}| () Int)
(declare-fun |.x{8}| () (Array Int Int))
(declare-fun |.x{772}| () (Array Int Int))
(declare-fun |.x{9}| () (Array Int Int))
(declare-fun |.x{773}| () (Array Int Int))
(declare-fun |.x{45}| () Int)
(declare-fun |.x{774}| () Int)
(declare-fun |.x{11}| () Int)
(declare-fun |.x{775}| () Int)
(declare-fun |.x{12}| () Int)
(declare-fun |.x{776}| () Int)
(declare-fun |.x{13}| () Int)
(declare-fun |.x{777}| () Int)
(declare-fun |.x{14}| () Int)
(declare-fun |.x{778}| () Int)
(declare-fun |.x{15}| () Int)
(declare-fun |.x{779}| () Int)
(declare-fun |.x{16}| () Int)
(declare-fun |.x{780}| () Int)
(declare-fun |.x{17}| () Int)
(declare-fun |.x{781}| () Int)
(declare-fun |.x{18}| () Int)
(declare-fun |.x{782}| () Int)
(declare-fun |.x{19}| () Int)
(declare-fun |.x{783}| () Int)
(declare-fun |.x{20}| () Int)
(declare-fun |.x{784}| () Int)
(declare-fun |.x{21}| () Int)
(declare-fun |.x{785}| () Int)
(declare-fun |.x{22}| () Int)
(declare-fun |.x{786}| () Int)
(declare-fun |.x{23}| () Int)
(declare-fun |.x{787}| () Int)
(declare-fun |.x{24}| () Int)
(declare-fun |.x{788}| () Int)
(declare-fun |.x{25}| () Int)
(declare-fun |.x{789}| () Int)
(declare-fun |.x{26}| () Int)
(declare-fun |.x{790}| () Int)
(declare-fun |.x{27}| () Int)
(declare-fun |.x{791}| () Int)
(declare-fun |.x{28}| () Int)
(declare-fun |.x{792}| () Int)
(declare-fun |.x{29}| () Int)
(declare-fun |.x{793}| () Int)
(declare-fun |.x{30}| () Int)
(declare-fun |.x{794}| () Int)
(declare-fun |.x{31}| () Int)
(declare-fun |.x{795}| () Int)
(declare-fun |.x{32}| () Int)
(declare-fun |.x{796}| () Int)
(declare-fun |.x{33}| () Int)
(declare-fun |.x{797}| () Int)
(declare-fun |.x{34}| () Int)
(declare-fun |.x{798}| () Int)
(declare-fun |.x{35}| () Bool)
(declare-fun |.x{729}| () Bool)
(declare-fun |.loc{3}| () Bool)
(declare-fun |.loc{5}| () Bool)
(declare-fun |.loc{4}| () Bool)
(declare-fun |.loc{6}| () Bool)
(declare-fun |.x{226}| () (Array Int (Array Int Int)))
(declare-fun |.x{352}| () Int)
(declare-fun |.x{139}| () (Array Int Int))
(declare-fun |.x{336}| () Int)
(define-fun .def_78 () Bool (! |.loc{3}| :next |.loc{5}|))
(define-fun .def_232 () Bool (not .def_78))
(define-fun .def_80 () Bool (! |.loc{4}| :next |.loc{6}|))
(define-fun .def_136 () Bool (not .def_80))
(define-fun .def_359 () Bool (and .def_136 .def_232))
(define-fun .def_28 () Int (! |.x{11}| :next |.x{775}|))
(define-fun .def_26 () Int (! |.x{45}| :next |.x{774}|))
(define-fun .def_353 () Bool (= .def_26 .def_28))
(define-fun .def_16 () (Array Int (Array Int Int)) (! |.x{5}| :next |.x{769}|))
(define-fun .def_14 () (Array Int (Array Int Int)) (! |.x{4}| :next |.x{768}|))
(define-fun .def_352 () Bool (= .def_14 .def_16))
(define-fun .def_354 () Bool (and .def_352 .def_353))
(define-fun .def_20 () Int (! |.x{7}| :next |.x{771}|))
(define-fun .def_18 () Int (! |.x{41}| :next |.x{770}|))
(define-fun .def_351 () Bool (= .def_18 .def_20))
(define-fun .def_355 () Bool (and .def_351 .def_354))
(define-fun .def_24 () (Array Int Int) (! |.x{9}| :next |.x{773}|))
(define-fun .def_22 () (Array Int Int) (! |.x{8}| :next |.x{772}|))
(define-fun .def_350 () Bool (= .def_22 .def_24))
(define-fun .def_356 () Bool (and .def_350 .def_355))
(define-fun .def_76 () Bool (! |.x{35}| :next |.x{729}|))
(define-fun .def_349 () Bool (not .def_76))
(define-fun .def_357 () Bool (and .def_349 .def_356))
(define-fun .def_12 () (Array Int Int) (! |.x{3}| :next |.x{767}|))
(define-fun .def_10 () (Array Int Int) (! |.x{37}| :next |.x{766}|))
(define-fun .def_348 () Bool (= .def_10 .def_12))
(define-fun .def_358 () Bool (and .def_348 .def_357))
(define-fun .def_360 () Bool (! (and .def_358 .def_359) :init true))
(define-fun .def_345 () Bool (= .def_12 |.x{767}|))
(define-fun .def_8 () Int (! |.x{1}| :next |.x{765}|))
(define-fun .def_343 () Bool (= .def_8 |.x{765}|))
(define-fun .def_341 () Bool (= .def_28 |.x{775}|))
(define-fun .def_339 () Bool (= .def_24 |.x{773}|))
(define-fun .def_337 () Bool (= .def_16 |.x{769}|))
(define-fun .def_336 () Bool (= .def_20 |.x{771}|))
(define-fun .def_338 () Bool (and .def_336 .def_337))
(define-fun .def_340 () Bool (and .def_338 .def_339))
(define-fun .def_342 () Bool (and .def_340 .def_341))
(define-fun .def_344 () Bool (and .def_342 .def_343))
(define-fun .def_346 () Bool (and .def_344 .def_345))
(define-fun .def_152 () Bool (= |.x{783}| 1))
(define-fun .def_325 () Bool (not .def_152))
(define-fun .def_326 () Bool (or .def_76 .def_325))
(define-fun .def_168 () Bool (= |.x{785}| |.x{786}|))
(define-fun .def_163 () (Array Int Int) (select |.x{226}| |.x{787}|))
(define-fun .def_164 () (Array Int Int) (store .def_163 |.x{785}| 1))
(define-fun .def_165 () (Array Int (Array Int Int)) (store |.x{226}| |.x{787}| .def_164))
(define-fun .def_166 () Bool (= |.x{768}| .def_165))
(define-fun .def_159 () Bool (= |.x{777}| |.x{787}|))
(define-fun .def_158 () Bool (= |.x{787}| |.x{788}|))
(define-fun .def_160 () Bool (and .def_158 .def_159))
(define-fun .def_157 () Bool (= |.x{782}| |.x{785}|))
(define-fun .def_161 () Bool (and .def_157 .def_160))
(define-fun .def_167 () Bool (and .def_161 .def_166))
(define-fun .def_169 () Bool (and .def_167 .def_168))
(define-fun .def_320 () Bool (or .def_76 .def_169))
(define-fun .def_91 () Bool (= |.x{779}| |.x{781}|))
(define-fun .def_82 () (Array Int Int) (select |.x{768}| |.x{798}|))
(define-fun .def_83 () Int (select .def_82 |.x{779}|))
(define-fun .def_84 () Bool (= |.x{783}| .def_83))
(define-fun .def_173 () Bool (and .def_84 .def_91))
(define-fun .def_172 () Bool (= |.x{786}| |.x{796}|))
(define-fun .def_174 () Bool (and .def_172 .def_173))
(define-fun .def_85 () Bool (= |.x{781}| |.x{796}|))
(define-fun .def_175 () Bool (and .def_85 .def_174))
(define-fun .def_89 () Bool (= |.x{794}| |.x{798}|))
(define-fun .def_176 () Bool (and .def_89 .def_175))
(define-fun .def_87 () Bool (= |.x{780}| |.x{794}|))
(define-fun .def_177 () Bool (and .def_87 .def_176))
(define-fun .def_171 () Bool (= |.x{777}| |.x{780}|))
(define-fun .def_178 () Bool (and .def_171 .def_177))
(define-fun .def_317 () Bool (or .def_76 .def_178))
(define-fun .def_216 () (Array Int Int) (store |.x{139}| |.x{797}| 1))
(define-fun .def_217 () Bool (= |.x{766}| .def_216))
(define-fun .def_213 () Bool (= |.x{797}| 0))
(define-fun .def_214 () Bool (not .def_213))
(define-fun .def_211 () Bool (= |.x{336}| 0))
(define-fun .def_208 () Bool (= |.x{776}| 0))
(define-fun .def_203 () Int (select |.x{139}| |.x{797}|))
(define-fun .def_204 () Bool (= .def_203 0))
(define-fun .def_199 () Bool (= |.x{782}| |.x{789}|))
(define-fun .def_197 () Bool (= |.x{352}| 0))
(define-fun .def_194 () Bool (= |.x{776}| |.x{789}|))
(define-fun .def_192 () Bool (= |.x{791}| |.x{797}|))
(define-fun .def_191 () Bool (= |.x{788}| |.x{791}|))
(define-fun .def_193 () Bool (and .def_191 .def_192))
(define-fun .def_195 () Bool (and .def_193 .def_194))
(define-fun .def_198 () Bool (and .def_195 .def_197))
(define-fun .def_200 () Bool (and .def_198 .def_199))
(define-fun .def_189 () (Array Int Int) (store .def_22 |.x{797}| 4))
(define-fun .def_190 () Bool (= |.x{772}| .def_189))
(define-fun .def_201 () Bool (and .def_190 .def_200))
(define-fun .def_205 () Bool (and .def_201 .def_204))
(define-fun .def_186 () Bool (<= |.x{797}| |.x{765}|))
(define-fun .def_187 () Bool (not .def_186))
(define-fun .def_206 () Bool (and .def_187 .def_205))
(define-fun .def_182 () (Array Int Int) (select .def_14 |.x{791}|))
(define-fun .def_183 () (Array Int Int) (store .def_182 |.x{789}| 0))
(define-fun .def_184 () (Array Int (Array Int Int)) (store .def_14 |.x{791}| .def_183))
(define-fun .def_185 () Bool (= |.x{226}| .def_184))
(define-fun .def_207 () Bool (and .def_185 .def_206))
(define-fun .def_209 () Bool (and .def_207 .def_208))
(define-fun .def_212 () Bool (and .def_209 .def_211))
(define-fun .def_215 () Bool (and .def_212 .def_214))
(define-fun .def_218 () Bool (and .def_215 .def_217))
(define-fun .def_315 () Bool (or .def_76 .def_218))
(define-fun .def_316 () Bool (and .def_232 .def_315))
(define-fun .def_318 () Bool (and .def_316 .def_317))
(define-fun .def_319 () Bool (and .def_317 .def_318))
(define-fun .def_321 () Bool (and .def_319 .def_320))
(define-fun .def_227 () (Array Int Int) (store .def_10 0 0))
(define-fun .def_228 () Bool (= |.x{139}| .def_227))
(define-fun .def_225 () Bool (= |.x{770}| 0))
(define-fun .def_224 () Bool (= |.x{774}| 0))
(define-fun .def_226 () Bool (and .def_224 .def_225))
(define-fun .def_229 () Bool (and .def_226 .def_228))
(define-fun .def_230 () Bool (or .def_76 .def_229))
(define-fun .def_322 () Bool (and .def_230 .def_321))
(define-fun .def_86 () Bool (and .def_84 .def_85))
(define-fun .def_88 () Bool (and .def_86 .def_87))
(define-fun .def_90 () Bool (and .def_88 .def_89))
(define-fun .def_92 () Bool (and .def_90 .def_91))
(define-fun .def_307 () Bool (or .def_76 .def_92))
(define-fun .def_36 () Int (! |.x{15}| :next |.x{779}|))
(define-fun .def_74 () Int (! |.x{34}| :next |.x{798}|))
(define-fun .def_124 () (Array Int Int) (select .def_14 .def_74))
(define-fun .def_125 () (Array Int Int) (store .def_124 .def_36 2))
(define-fun .def_126 () (Array Int (Array Int Int)) (store .def_14 .def_74 .def_125))
(define-fun .def_127 () Bool (= |.x{768}| .def_126))
(define-fun .def_128 () Bool (or .def_76 .def_127))
(define-fun .def_121 () Bool (= .def_10 |.x{766}|))
(define-fun .def_119 () Bool (= .def_18 |.x{770}|))
(define-fun .def_117 () Bool (= .def_22 |.x{772}|))
(define-fun .def_115 () Bool (= .def_26 |.x{774}|))
(define-fun .def_30 () Int (! |.x{12}| :next |.x{776}|))
(define-fun .def_113 () Bool (= .def_30 |.x{776}|))
(define-fun .def_32 () Int (! |.x{13}| :next |.x{777}|))
(define-fun .def_111 () Bool (= .def_32 |.x{777}|))
(define-fun .def_34 () Int (! |.x{14}| :next |.x{778}|))
(define-fun .def_109 () Bool (= .def_34 |.x{778}|))
(define-fun .def_38 () Int (! |.x{16}| :next |.x{780}|))
(define-fun .def_107 () Bool (= .def_38 |.x{780}|))
(define-fun .def_42 () Int (! |.x{18}| :next |.x{782}|))
(define-fun .def_105 () Bool (= .def_42 |.x{782}|))
(define-fun .def_48 () Int (! |.x{21}| :next |.x{785}|))
(define-fun .def_103 () Bool (= .def_48 |.x{785}|))
(define-fun .def_50 () Int (! |.x{22}| :next |.x{786}|))
(define-fun .def_101 () Bool (= .def_50 |.x{786}|))
(define-fun .def_52 () Int (! |.x{23}| :next |.x{787}|))
(define-fun .def_99 () Bool (= .def_52 |.x{787}|))
(define-fun .def_54 () Int (! |.x{24}| :next |.x{788}|))
(define-fun .def_97 () Bool (= .def_54 |.x{788}|))
(define-fun .def_58 () Int (! |.x{26}| :next |.x{790}|))
(define-fun .def_95 () Bool (= .def_58 |.x{790}|))
(define-fun .def_56 () Int (! |.x{25}| :next |.x{789}|))
(define-fun .def_94 () Bool (= .def_56 |.x{789}|))
(define-fun .def_96 () Bool (and .def_94 .def_95))
(define-fun .def_98 () Bool (and .def_96 .def_97))
(define-fun .def_100 () Bool (and .def_98 .def_99))
(define-fun .def_102 () Bool (and .def_100 .def_101))
(define-fun .def_104 () Bool (and .def_102 .def_103))
(define-fun .def_106 () Bool (and .def_104 .def_105))
(define-fun .def_108 () Bool (and .def_106 .def_107))
(define-fun .def_110 () Bool (and .def_108 .def_109))
(define-fun .def_112 () Bool (and .def_110 .def_111))
(define-fun .def_114 () Bool (and .def_112 .def_113))
(define-fun .def_116 () Bool (and .def_114 .def_115))
(define-fun .def_118 () Bool (and .def_116 .def_117))
(define-fun .def_120 () Bool (and .def_118 .def_119))
(define-fun .def_122 () Bool (and .def_120 .def_121))
(define-fun .def_129 () Bool (and .def_122 .def_128))
(define-fun .def_306 () Bool (and .def_78 .def_129))
(define-fun .def_308 () Bool (and .def_306 .def_307))
(define-fun .def_72 () Int (! |.x{33}| :next |.x{797}|))
(define-fun .def_141 () Bool (= .def_72 |.x{797}|))
(define-fun .def_309 () Bool (and .def_141 .def_308))
(define-fun .def_70 () Int (! |.x{32}| :next |.x{796}|))
(define-fun .def_143 () Bool (= .def_70 |.x{796}|))
(define-fun .def_310 () Bool (and .def_143 .def_309))
(define-fun .def_68 () Int (! |.x{31}| :next |.x{795}|))
(define-fun .def_145 () Bool (= .def_68 |.x{795}|))
(define-fun .def_311 () Bool (and .def_145 .def_310))
(define-fun .def_64 () Int (! |.x{29}| :next |.x{793}|))
(define-fun .def_147 () Bool (= .def_64 |.x{793}|))
(define-fun .def_312 () Bool (and .def_147 .def_311))
(define-fun .def_62 () Int (! |.x{28}| :next |.x{792}|))
(define-fun .def_149 () Bool (= .def_62 |.x{792}|))
(define-fun .def_313 () Bool (and .def_149 .def_312))
(define-fun .def_60 () Int (! |.x{27}| :next |.x{791}|))
(define-fun .def_155 () Bool (= .def_60 |.x{791}|))
(define-fun .def_314 () Bool (and .def_155 .def_313))
(define-fun .def_323 () Bool (or .def_314 .def_322))
(define-fun .def_46 () Int (! |.x{20}| :next |.x{784}|))
(define-fun .def_138 () Bool (= .def_46 |.x{784}|))
(define-fun .def_305 () Bool (and .def_136 .def_138))
(define-fun .def_324 () Bool (and .def_305 .def_323))
(define-fun .def_327 () Bool (and .def_324 .def_326))
(define-fun .def_328 () Bool (and |.x{729}| .def_327))
(define-fun .def_295 () Bool (= .def_36 |.x{779}|))
(define-fun .def_40 () Int (! |.x{17}| :next |.x{781}|))
(define-fun .def_293 () Bool (= .def_40 |.x{781}|))
(define-fun .def_66 () Int (! |.x{30}| :next |.x{794}|))
(define-fun .def_291 () Bool (= .def_66 |.x{794}|))
(define-fun .def_289 () Bool (= .def_74 |.x{798}|))
(define-fun .def_285 () Bool (= |.x{790}| 0))
(define-fun .def_286 () Bool (or |.x{729}| .def_285))
(define-fun .def_282 () Bool (= |.x{784}| |.x{790}|))
(define-fun .def_283 () Bool (or |.x{729}| .def_282))
(define-fun .def_268 () Bool (and .def_94 .def_97))
(define-fun .def_269 () Bool (and .def_99 .def_268))
(define-fun .def_270 () Bool (and .def_101 .def_269))
(define-fun .def_271 () Bool (and .def_103 .def_270))
(define-fun .def_272 () Bool (and .def_105 .def_271))
(define-fun .def_273 () Bool (and .def_107 .def_272))
(define-fun .def_274 () Bool (and .def_109 .def_273))
(define-fun .def_275 () Bool (and .def_111 .def_274))
(define-fun .def_276 () Bool (and .def_113 .def_275))
(define-fun .def_277 () Bool (and .def_115 .def_276))
(define-fun .def_278 () Bool (and .def_117 .def_277))
(define-fun .def_279 () Bool (and .def_119 .def_278))
(define-fun .def_280 () Bool (and .def_121 .def_279))
(define-fun .def_281 () Bool (and .def_128 .def_280))
(define-fun .def_284 () Bool (and .def_281 .def_283))
(define-fun .def_287 () Bool (and .def_284 .def_286))
(define-fun .def_131 () Bool (= .def_76 |.x{729}|))
(define-fun .def_288 () Bool (and .def_131 .def_287))
(define-fun .def_290 () Bool (and .def_288 .def_289))
(define-fun .def_292 () Bool (and .def_290 .def_291))
(define-fun .def_294 () Bool (and .def_292 .def_293))
(define-fun .def_296 () Bool (and .def_294 .def_295))
(define-fun .def_297 () Bool (and .def_80 .def_296))
(define-fun .def_298 () Bool (and .def_232 .def_297))
(define-fun .def_299 () Bool (and .def_141 .def_298))
(define-fun .def_300 () Bool (and .def_143 .def_299))
(define-fun .def_301 () Bool (and .def_145 .def_300))
(define-fun .def_302 () Bool (and .def_147 .def_301))
(define-fun .def_303 () Bool (and .def_149 .def_302))
(define-fun .def_304 () Bool (and .def_155 .def_303))
(define-fun .def_329 () Bool (or .def_304 .def_328))
(define-fun .def_330 () Bool (and |.loc{6}| .def_329))
(define-fun .def_221 () Bool (not |.loc{6}|))
(define-fun .def_262 () Bool (and .def_76 .def_221))
(define-fun .def_263 () Bool (and .def_230 .def_262))
(define-fun .def_264 () Bool (and .def_232 .def_263))
(define-fun .def_265 () Bool (and .def_136 .def_264))
(define-fun .def_266 () Bool (and .def_138 .def_265))
(define-fun .def_267 () Bool (and |.x{729}| .def_266))
(define-fun .def_331 () Bool (or .def_267 .def_330))
(define-fun .def_332 () Bool (and |.loc{5}| .def_331))
(define-fun .def_238 () Bool (and .def_76 .def_102))
(define-fun .def_239 () Bool (and .def_103 .def_238))
(define-fun .def_240 () Bool (and .def_105 .def_239))
(define-fun .def_241 () Bool (and .def_107 .def_240))
(define-fun .def_242 () Bool (and .def_109 .def_241))
(define-fun .def_243 () Bool (and .def_111 .def_242))
(define-fun .def_244 () Bool (and .def_113 .def_243))
(define-fun .def_245 () Bool (and .def_115 .def_244))
(define-fun .def_246 () Bool (and .def_117 .def_245))
(define-fun .def_247 () Bool (and .def_119 .def_246))
(define-fun .def_248 () Bool (and .def_121 .def_247))
(define-fun .def_249 () Bool (and .def_128 .def_248))
(define-fun .def_133 () Bool (not |.loc{5}|))
(define-fun .def_250 () Bool (and .def_133 .def_249))
(define-fun .def_251 () Bool (and .def_78 .def_250))
(define-fun .def_252 () Bool (and .def_136 .def_251))
(define-fun .def_253 () Bool (and .def_138 .def_252))
(define-fun .def_254 () Bool (and |.loc{6}| .def_253))
(define-fun .def_255 () Bool (and .def_141 .def_254))
(define-fun .def_256 () Bool (and |.x{729}| .def_255))
(define-fun .def_257 () Bool (and .def_143 .def_256))
(define-fun .def_258 () Bool (and .def_145 .def_257))
(define-fun .def_259 () Bool (and .def_147 .def_258))
(define-fun .def_260 () Bool (and .def_149 .def_259))
(define-fun .def_261 () Bool (and .def_155 .def_260))
(define-fun .def_333 () Bool (or .def_261 .def_332))
(define-fun .def_219 () Bool (or |.x{729}| .def_218))
(define-fun .def_179 () Bool (or |.x{729}| .def_178))
(define-fun .def_170 () Bool (or |.x{729}| .def_169))
(define-fun .def_180 () Bool (and .def_170 .def_179))
(define-fun .def_220 () Bool (and .def_180 .def_219))
(define-fun .def_222 () Bool (and .def_220 .def_221))
(define-fun .def_223 () Bool (and .def_131 .def_222))
(define-fun .def_231 () Bool (and .def_223 .def_230))
(define-fun .def_233 () Bool (and .def_231 .def_232))
(define-fun .def_234 () Bool (and .def_136 .def_233))
(define-fun .def_235 () Bool (and .def_138 .def_234))
(define-fun .def_236 () Bool (and |.loc{5}| .def_235))
(define-fun .def_153 () Bool (or |.x{729}| .def_152))
(define-fun .def_237 () Bool (and .def_153 .def_236))
(define-fun .def_334 () Bool (or .def_237 .def_333))
(define-fun .def_93 () Bool (or |.x{729}| .def_92))
(define-fun .def_130 () Bool (and .def_93 .def_129))
(define-fun .def_132 () Bool (and .def_130 .def_131))
(define-fun .def_134 () Bool (and .def_132 .def_133))
(define-fun .def_135 () Bool (and .def_78 .def_134))
(define-fun .def_137 () Bool (and .def_135 .def_136))
(define-fun .def_139 () Bool (and .def_137 .def_138))
(define-fun .def_140 () Bool (and |.loc{6}| .def_139))
(define-fun .def_142 () Bool (and .def_140 .def_141))
(define-fun .def_144 () Bool (and .def_142 .def_143))
(define-fun .def_146 () Bool (and .def_144 .def_145))
(define-fun .def_148 () Bool (and .def_146 .def_147))
(define-fun .def_150 () Bool (and .def_148 .def_149))
(define-fun .def_154 () Bool (and .def_150 .def_153))
(define-fun .def_156 () Bool (and .def_154 .def_155))
(define-fun .def_335 () Bool (or .def_156 .def_334))
(define-fun .def_347 () Bool (! (and .def_335 .def_346) :trans true))
(define-fun .def_44 () Int (! |.x{19}| :next |.x{783}|))
(define-fun .def_361 () Bool (and .def_78 .def_80))
(define-fun .def_362 () Bool (and .def_76 .def_361))
(define-fun .def_363 () Bool (! (not .def_362) :invar-property 0))
(assert true)
